echo            both
units           metal
dimension       3
boundary        p p p
atom_style      atomic

variable        procx index *
variable        procy index *
variable        procz index *
include         simulation_plan.lmp

variable        kim_model string EDIP_LAMMPS_Marks_2000_C__MO_374144505645_000

# Use the Marks 2000 EDIP/C OpenKIM model for carbon.
kim             init ${kim_model} metal

# Paths
variable        outdir string data
shell           mkdir ${outdir}

processors      ${procx} ${procy} ${procz}

# The XYZ file uses the element symbol "C" for atom labels.
read_restart    gc_edip.restart

labelmap        atom 1 C
#read_dump       ${xyzfile} 0 type x y z box no add yes format xyz

mass            1 12.011

neighbor        2.0 bin
neigh_modify    delay 0 every 1 check yes

kim             interactions C

thermo          1000
thermo_modify   flush yes
timestep        ${thermalize_timestep_ps}

compute         zmin all reduce min z
run             0
variable        shift equal -c_zmin

# Translate the periodic box together with the atoms so wrapped coordinates
# remain in a non-negative z interval in all downstream restart/data files.
variable        zlo_shifted equal zlo+v_shift
variable        zhi_shifted equal zhi+v_shift
change_box      all z final ${zlo_shifted} ${zhi_shifted} remap units box

kim             interactions C

# Geometry used for the source/sink and conductivity estimate.
variable        zhot_lo equal 0.25*lz-0.5*v_thermalize_slab_width_a
variable        zhot_hi equal 0.25*lz+0.5*v_thermalize_slab_width_a
variable        zcold_lo equal 0.75*lz-0.5*v_thermalize_slab_width_a
variable        zcold_hi equal 0.75*lz+0.5*v_thermalize_slab_width_a
variable        zhot_ctr equal 0.25*lz
variable        zcold_ctr equal 0.75*lz
variable        dz equal v_zcold_ctr-v_zhot_ctr
variable        area equal lx*ly

region          hot block INF INF INF INF v_zhot_lo v_zhot_hi units box
region          cold block INF INF INF INF v_zcold_lo v_zcold_hi units box
group           hot region hot
group           cold region cold

# Relax the imported structure before dynamics.
reset_timestep  0
min_style       cg
minimize        1.0e-10 1.0e-10 10000 100000

velocity        all create ${thermalize_temperature_k} ${thermalize_velocity_seed} mom yes rot no dist gaussian
fix             mom all momentum 100 linear 1 1 1

# Equilibrate at 300 K.
fix             eq1 all nvt temp ${thermalize_temperature_k} ${thermalize_temperature_k} 0.1
thermo_style    custom step temp pe ke etotal press vol
run             ${thermalize_nvt_steps}
unfix           eq1

# Relax the periodic box at 300 K before switching to microcanonical dynamics.
fix             eq2 all npt temp ${thermalize_temperature_k} ${thermalize_temperature_k} 0.1 iso 0.0 0.0 1.0
run             ${thermalize_npt_steps}
unfix           eq2

# Let the relaxed structure evolve microcanonically before applying the heat flux.
fix             eq3 all nve
run             ${thermalize_nve_steps}
unfix           eq3

# Equilibrate at 300 K.
fix             eq4 all nvt temp ${thermalize_temperature_k} ${thermalize_temperature_k} 0.1
thermo_style    custom step temp pe ke etotal press vol
run             ${thermalize_nvt_steps}
unfix           eq4

# Relax the periodic box at 300 K before switching to microcanonical dynamics.
fix             eq5 all npt temp ${thermalize_temperature_k} ${thermalize_temperature_k} 0.1 iso 0.0 0.0 1.0
run             ${thermalize_npt_steps}
unfix           eq5

# Let the relaxed structure evolve microcanonically.
fix             eq6 all nve
run             ${thermalize_nve_steps}
unfix           eq6

# Equilibrate at 300 K one more time before applying the heat flux.
fix             eq7 all nvt temp ${thermalize_temperature_k} ${thermalize_temperature_k} 0.1
thermo_style    custom step temp pe ke etotal press vol
run             ${thermalize_nvt_steps}
unfix           eq7


write_restart   ${outdir}/gc_edip_thermalize.restart
write_data      ${outdir}/gc_edip_thermalize.data
